# ATOM AND REFERENCE CONFIGURATION
# atsym  z   nc   nv     iexc    psfile
As 33.00 5 3 -116133 upf
#
#   n    l    f        energy (Ha)
    1    0    2.00
    2    0    2.00
    2    1    6.00
    3    0    2.00
    3    1    6.00
    3    2   10.00
    4    0    2.00
    4    1    3.00
#
# PSEUDOPOTENTIAL AND OPTIMIZATION
# lmax
    2
#
#   l,   rc,      ep,       ncon, nbas, qcut
    0   2.10000   0.00000    4    8   5.50000
    1   1.80000   0.00000    4    8   9.00000
    2   2.10000   0.00000    4    8   7.80000
#
# LOCAL POTENTIAL
# lloc, lpopt,  rc(5),   dvloc0
    4    5   1.60000      0.00000
#
# VANDERBILT-KLEINMAN-BYLANDER PROJECTORs
# l, nproj, debl
    0    2   2.50000
    1    2   2.50000
    2    2   2.50000
#
# MODEL CORE CHARGE
# icmod, fcfact, rcfact
    3   5.00000   1.40000
#
# LOG DERIVATIVE ANALYSIS
# epsh1, epsh2, depsh
  -10.00    5.00    0.02
#
# OUTPUT GRID
# rlmax, drl
    6.00    0.01
#
# TEST CONFIGURATIONS
# ncnf
    0
# nvcnf
#   n    l    f
