# ATOM AND REFERENCE CONFIGURATION
# atsym  z   nc   nv     iexc    psfile
Fe 26.00 3 4 -116133 upf
#
#   n    l    f        energy (Ha)
    1    0    2.00
    2    0    2.00
    2    1    6.00
    3    0    2.00
    3    1    6.00
    3    2    6.00
    4    0    2.00
#
# PSEUDOPOTENTIAL AND OPTIMIZATION
# lmax
    2
#
#   l,   rc,      ep,       ncon, nbas, qcut
    0   2.01687  -3.45509    4    8   6.70755
    1   2.50368  -2.20653    4    8   8.55114
    2   2.48626  -0.27580    4    8   8.55864
#
# LOCAL POTENTIAL
# lloc, lpopt,  rc(5),   dvloc0
    4    5   1.83375      0.00000
#
# VANDERBILT-KLEINMAN-BYLANDER PROJECTORs
# l, nproj, debl
    0    2   3.26061
    1    2   2.15783
    2    2   0.80000
#
# MODEL CORE CHARGE
# icmod, fcfact, rcfact
    3   3.00000   1.70000
#
# LOG DERIVATIVE ANALYSIS
# epsh1, epsh2, depsh
  -24.00   12.00    0.02
#
# OUTPUT GRID
# rlmax, drl
    6.00    0.01
#
# TEST CONFIGURATIONS
# ncnf
    0
# nvcnf
#   n    l    f
