# ATOM AND REFERENCE CONFIGURATION
# atsym  z   nc   nv     iexc    psfile
La 57.00 9 4 -116133 upf
#
#   n    l    f        energy (Ha)
    1    0    2.00
    2    0    2.00
    2    1    6.00
    3    0    2.00
    3    1    6.00
    3    2   10.00
    4    0    2.00
    4    1    6.00
    4    2   10.00
    5    0    2.00
    5    1    6.00
    5    2    1.00
    6    0    2.00
#
# PSEUDOPOTENTIAL AND OPTIMIZATION
# lmax
    3
#
#   l,   rc,      ep,       ncon, nbas, qcut
    0   2.80000  -1.43044    4    8   4.89557
    1   2.49185  -0.82320    4    8   5.05141
    2   2.79831  -0.11357    4    9   5.02940
    3   2.70537  -0.15967    4    7   7.02692
#
# LOCAL POTENTIAL
# lloc, lpopt,  rc(5),   dvloc0
    4    5   2.23830      2.00000
#
# VANDERBILT-KLEINMAN-BYLANDER PROJECTORs
# l, nproj, debl
    0    2   1.29521
    1    2   4.00000
    2    2   4.00000
    3    2   3.00000
#
# MODEL CORE CHARGE
# icmod, fcfact, rcfact
    3   5.00000   1.35000
#
# LOG DERIVATIVE ANALYSIS
# epsh1, epsh2, depsh
  -12.00   12.00    0.02
#
# OUTPUT GRID
# rlmax, drl
    6.00    0.01
#
# TEST CONFIGURATIONS
# ncnf
    0
# nvcnf
#   n    l    f
