Cu 29                                       ! Definition of material
XC_GGA_X_PBE_SOL+XC_GGA_C_PBE_SOL scalarrelativistic loggrid 601 200.0 2.2      ! All-electrons calc.: GGA- log.grid with 700 pts
4 3 3 0 0 0                                 ! Max. n per angular momentum: 4s 3p 3d
4 0 1
3 2 10
0 0 0                                       !             End of occupation section
c
c
v
v
c					
v
v
2                                           ! Max. l for partial waves basis
2.0 1.8 1.4 0.8                             ! r_PAW radiusy                                           ! Do we add an additional s pa
n
y
2.5
n                                           ! Do we add an additional p partial wave ? no
y                                           ! Do we add an additional d partial wave ? yes
2.0                                         ! Reference energy for this new d partial wave (Ryd)
n                                           ! Do we add an additional d partial wave ? no
custom rrkj
3 0.0
1.8                                        ! r_c matching radius for second s partial wave
1.8
2.0                                         ! r_c matching radius for first  p partial wave
2.0                                         ! r_c matching radius for second p partial wave
2.0                                         ! r_c matching radius for first  d partial wave
2.0                                         ! r_c matching radius for second d partial wave
PWSCFOUT
upfdx 0.005 upfxmin -9.0 upfzmesh 1.0
END
