&input
 title = 'Uran'
 atom = 'U',
 dft = 'pbe',
 config = '[Rn] 5f3.0 6d1.0 7s2 7p0',
 rel = 1,
 iswitch = 3
 /
&inputp
   lpaw=.true.
   pseudotype=3,
   file_pseudopw='U.paw.pbesol.z_14.ld1.uni-marburg.v0.upf',
   author='MS',
   lloc = -2,
   rcloc = 1.4
   nlcc = .true.
   new_core_ps=.true.
   rcore = 1.15,
   which_augfun='PSQ',
   rmatch_augfun = 1.4,
   rmatch_augfun_nc = .true.,
   tm=.true.,
   lgipaw_reconstruction=.true.,
   use_paw_as_gipaw=.true.,
 /
8
6S  1  0  2.00  0.00  1.30  1.75  0.0
7S  2  0  2.00  0.00  1.30  1.75  0.0
6P  2  1  6.00  0.00  1.40  2.00  0.0
7P  3  1  0.00  3.50  1.40  2.00  0.0
6D  3  2  1.00  0.00  1.30  2.20  0.0
6D  3  2  0.00  3.50  1.30  2.20  0.0
5F  4  3  3.00  0.00  1.30  1.80  0.0
5F  4  3  0.00  1.20  1.30  2.30  0.0
