 &input
   title='As',
   zed=33.,
   rel=1,
   config='[Ar] 4s2 4p3 3d10',
   iswitch=3,
   dft='PBESOL'
 /
 &inputp
   lpaw=.false.,
   pseudotype=3,
   file_pseudopw='As.us.pbesol.z_15.ld1.psl.v1.0.0-high.upf',
   author='ADC',
   lloc=-1,
   rcloc=2.0,
   which_augfun='PSQ',
   rmatch_augfun_nc=.true.,
   nlcc=.true.,
   new_core_ps=.true.,
   rcore=1.0,
   tm=.true.
 /
6
4S  1  0  2.00  0.00  1.50  1.80  0.0
4S  1  0  0.00  2.00  1.50  1.80  0.0
4P  2  1  3.00  0.00  1.60  1.80  0.0
4P  2  1  0.00  2.00  1.60  1.80  0.0
3D  3  2 10.00  0.00  1.20  1.70  0.0
3D  3  2  0.00  0.05  1.20  1.70  0.0
