 &input
   title='B',
   zed=5.,
   rel=1,
   config='[He] 2s2 2p1',
   iswitch=3,
   dft='PBESOL'
 /
 &inputp
   lpaw=.false.,
   pseudotype=3,
   file_pseudopw='B.us.pbesol.z_3.ld1.psl.v1.0.0-high.upf',
   author='ADC',
   lloc=-1,
   rcloc=1.2
   which_augfun='PSQ',
   rmatch_augfun_nc=.true.,
   nlcc=.true.,
   new_core_ps=.true.,
   rcore=0.9,
   tm=.true.
 /
4
2S  1  0  2.00  0.00  1.00  1.20  0.0
2S  1  0  0.00  3.00  1.00  1.20  0.0
2P  2  1  1.00  0.00  1.00  1.40  0.0
2P  2  1  0.00  1.50  1.00  1.40  0.0
