 &input
   title='Ne',
   zed=10.,
   rel=1,
   config='[He] 2s2 2p6',
   iswitch=3,
   dft='PBESOL'
 /
 &inputp
   lpaw=.false.,
   pseudotype=3,
   file_pseudopw='Ne.us.pbesol.z_8.ld1.psl.v1.0.0-high.upf',
   author='ADC',
   lloc=-1,
   rcloc=1.0
   which_augfun='PSQ',
   rmatch_augfun_nc=.true.,
   nlcc=.true.,
   new_core_ps=.true.,
   rcore=0.8,
   tm=.true.
 /
4
2S  1  0  2.00  0.00  1.00  1.40  0.0
2S  1  0  0.00  0.40  1.00  1.40  0.0
2P  2  1  6.00  0.00  1.00  1.40  0.0
2P  2  1  0.00  0.05  1.00  1.40  0.0
