 &input
   title='As',
   zed=33.,
   rel=1,
   config='[Ar] 4s2 4p3 3d10 4d-1',
   iswitch=3,
   dft='PBESOL'
 /
 &inputp
   lpaw=.true.,
   pseudotype=3,
   file_pseudopw='As.paw.pbesol.z_5.ld1.psl.v1.0.0-low.upf',
   author='ADC',
   lloc=2,
   which_augfun='PSQ',
   rmatch_augfun_nc=.true.,
   nlcc=.true.,
   new_core_ps=.true.,
   rcore=1.5,
   tm=.true.
 /
5
4S  1  0  2.00  0.00  1.60  1.80  0.0
4S  1  0  0.00  0.40  1.60  1.80  0.0
4P  2  1  3.00  0.00  1.60  2.00  0.0
4P  2  1  0.00  0.40  1.60  2.00  0.0
4D  3  2 -2.00  0.50  2.00  2.00  0.0
